p wcnf 182 273 274 
1 -147 -173 0 
1 143 -152 0 
1 -114 -178 0 
1 -130 -178 0 
1 51 87 0 
1 -75 -28 0 
1 122 -129 0 
1 137 147 0 
1 -97 -26 0 
1 36 68 0 
1 28 -47 0 
1 7 156 0 
1 -7 3 0 
1 -119 -25 0 
1 180 -124 0 
1 22 124 0 
1 30 -126 0 
1 -69 107 0 
1 -92 -4 0 
1 -145 -121 0 
1 9 -101 0 
1 29 -58 0 
1 178 143 0 
1 -107 -31 0 
1 16 170 0 
1 89 -47 0 
1 24 -59 0 
1 -181 -110 0 
1 -18 -22 0 
1 -23 1 0 
1 141 136 0 
1 -24 171 0 
1 -161 95 0 
1 -168 -30 0 
1 84 7 0 
1 36 151 0 
1 68 -180 0 
1 174 -166 0 
1 -79 180 0 
1 177 -144 0 
1 8 -41 0 
1 10 -8 0 
1 23 -178 0 
1 -44 136 0 
1 31 -6 0 
1 -115 -122 0 
1 -80 148 0 
1 40 19 0 
1 -69 7 0 
1 146 24 0 
1 137 171 0 
1 -70 47 0 
1 127 -61 0 
1 -167 172 0 
1 -179 -1 0 
1 -1 -57 0 
1 81 -57 0 
1 -118 -32 0 
1 39 -93 0 
1 -127 -162 0 
1 -34 -107 0 
1 162 -142 0 
1 -88 -110 0 
1 -89 -78 0 
1 -157 -168 0 
1 -8 -20 0 
1 176 65 0 
1 114 87 0 
1 -31 -109 0 
1 112 -48 0 
1 116 -119 0 
1 -7 74 0 
1 -53 -103 0 
1 149 -56 0 
1 113 146 0 
1 156 128 0 
1 146 159 0 
1 10 -64 0 
1 -79 107 0 
1 44 -138 0 
1 63 175 0 
1 56 -86 0 
1 -109 -77 0 
1 -49 -104 0 
1 -3 34 0 
1 21 89 0 
1 -89 155 0 
1 49 -80 0 
1 102 28 0 
1 -138 120 0 
1 123 -170 0 
1 -103 146 0 
1 162 -53 0 
1 34 167 0 
1 177 134 0 
1 120 -125 0 
1 -176 152 0 
1 -78 150 0 
1 98 -59 0 
1 39 -22 0 
1 -13 -103 0 
1 54 -175 0 
1 108 -69 0 
1 102 -20 0 
1 62 180 0 
1 155 -114 0 
1 94 -31 0 
1 -37 -40 0 
1 -30 115 0 
1 -1 155 0 
1 138 42 0 
1 49 14 0 
1 141 157 0 
1 165 94 0 
1 -20 -59 0 
1 34 170 0 
1 -137 -151 0 
1 -81 46 0 
1 173 -38 0 
1 129 -2 0 
1 -98 -46 0 
1 -145 -113 0 
1 -129 20 0 
1 155 -182 0 
1 -13 -127 0 
1 -167 -181 0 
1 6 130 0 
1 80 -82 0 
1 60 -35 0 
1 -109 5 0 
1 63 66 0 
1 165 64 0 
1 94 104 0 
1 130 88 0 
1 -17 119 0 
1 -132 -15 0 
1 59 49 0 
1 21 93 0 
1 115 -120 0 
1 98 -32 0 
1 -35 -68 0 
1 -97 107 0 
1 147 -57 0 
1 -55 35 0 
1 -45 -58 0 
1 -149 69 0 
1 154 140 0 
1 -161 -129 0 
1 -140 -38 0 
1 170 42 0 
1 -53 88 0 
1 40 -33 0 
1 -93 -180 0 
1 4 39 0 
1 106 156 0 
1 -30 -172 0 
1 119 -107 0 
1 -21 17 0 
1 -171 17 0 
1 155 60 0 
1 -28 -136 0 
1 137 5 0 
1 -57 116 0 
1 54 147 0 
1 -158 41 0 
1 -98 21 0 
1 155 -129 0 
1 25 -117 0 
1 116 -180 0 
1 -39 -82 0 
1 -76 -86 0 
1 -69 -45 0 
1 -47 179 0 
1 -55 159 0 
1 -118 145 0 
1 106 -71 0 
1 -130 -85 0 
1 -7 127 0 
1 163 -74 0 
1 -91 40 0 
1 122 45 0 
1 140 -110 0 
1 -16 172 0 
1 -83 90 0 
1 181 -148 0 
1 115 107 0 
1 -167 151 0 
1 -73 173 0 
1 173 169 0 
1 167 -90 0 
1 -167 155 0 
1 -10 92 0 
1 -39 95 0 
1 134 -165 0 
1 -78 -48 0 
1 -176 -68 0 
1 144 -168 0 
1 52 137 0 
1 -165 72 0 
1 -7 -131 0 
1 -151 -14 0 
1 33 173 0 
1 107 85 0 
1 -140 -100 0 
1 65 146 0 
1 47 -139 0 
1 160 48 0 
1 105 57 0 
1 -76 3 0 
1 -145 138 0 
1 150 114 0 
1 -55 117 0 
1 46 -32 0 
1 31 47 0 
1 -6 -112 0 
1 18 180 0 
1 -130 -126 0 
1 -31 134 0 
1 94 34 0 
1 32 160 0 
1 -134 120 0 
1 -175 64 0 
1 -11 142 0 
1 -3 48 0 
1 157 -92 0 
1 21 -87 0 
1 122 -28 0 
1 -147 33 0 
1 -141 -17 0 
1 -77 149 0 
1 -53 -128 0 
1 -20 178 0 
1 109 40 0 
1 -33 134 0 
1 -88 141 0 
1 -31 -64 0 
1 -63 97 0 
1 -2 -89 0 
1 44 -92 0 
1 -111 -94 0 
1 106 -163 0 
1 95 78 0 
1 -146 -101 0 
1 125 -43 0 
1 101 -22 0 
1 129 -15 0 
1 -72 -136 0 
1 29 133 0 
1 96 -98 0 
1 114 83 0 
1 2 -69 0 
1 -29 53 0 
1 -1 -73 0 
1 -33 -83 0 
1 86 93 0 
1 -173 17 0 
1 172 114 0 
1 31 -48 0 
1 -76 79 0 
1 84 -75 0 
1 169 37 0 
1 141 11 0 
1 13 -179 0 
1 97 -159 0 
1 15 -176 0 
1 76 38 0 
1 176 -92 0 
1 81 170 0 
1 76 -28 0 
1 -135 5 0 
1 -117 133 0 
1 75 -21 0 
1 -176 -128 0 
